c ****************************************************************
c **     This is a Sat-2003 Competition *SHUFFLED* instance     **
c ****************************************************************
c N.B. This header has been added to the file after the competition
c Please do contact L. Simon for more informations (simon@lri.fr)
c 
c Bench submitted by: Rachel Bevan (McGill University, Montreal, CA)
c              email: rachel@mcb.mcgill.ca
c 
c The original name of this formula was: 
c    handmade/bevan/cnf/marg2x3.cnf
c Category : HandMade
c The name used during the competition was: 
c     handmade/set103/sat03-1441.cnf
c The random seed used to shuffle this instance  was: 73273102
c 
c CPU time of solvers on this bench during the first stage 
c  (including Hors-Concours solvers):
c   +------------+--------+--------+
c   | Solver     | Time   | Answer |
c   +------------+--------+--------+
c   | berkmin561 |   0.00 |  UNSAT |
c   | marchsp    |   0.00 |  UNSAT |
c   | marchtt    |   0.00 |  UNSAT |
c   | sato       |   0.00 |  UNSAT |
c   | xqingting  |   0.00 |  UNSAT |
c   | bmsat      |   0.01 |  UNSAT |
c   | funex      |   0.01 |  UNSAT |
c   | jerusat1b  |   0.01 |  UNSAT |
c   | kcnfs      |   0.01 |  UNSAT |
c   | limmat     |   0.01 |  UNSAT |
c   | oepir      |   0.01 |  UNSAT |
c   | siege      |   0.01 |  UNSAT |
c   | tts        |   0.01 |  UNSAT |
c   | zchaff     |   0.01 |  UNSAT |
c   | forklift   |   0.02 |  UNSAT |
c   | jerusat1a  |   0.02 |  UNSAT |
c   | jerusat1c  |   0.02 |  UNSAT |
c   | lsat       |   0.02 |  UNSAT |
c   | satzoo0    |   0.02 |  UNSAT |
c   | satnik     |   0.04 |  UNSAT |
c   | satzoo1    |   0.08 |  UNSAT |
c   | satzilla   |   0.18 |  UNSAT |
c   | jquest2    |   0.56 |  UNSAT |
c   | berkmin62  |   0.59 |  UNSAT |
c   | opensat    |   0.63 |  UNSAT |
c   | farseer    |   5.71 |  UNSAT |
c   | satzilla2  |  30.60 |  UNSAT |
c   | amvo       | 900.00 |   --   |
c   | compsat    | 900.00 |   --   |
c   | marchxq    | 900.00 |   --   |
c   | qingting   | 900.00 |   --   |
c   | saturn     | 900.00 |   --   |
c   | unitwalk   | 900.00 |   --   |
c   +------------+--------+--------+
c
c Old header begins here:
c The random seed used to shuffle this instance was seed=73273102
p cnf 21 72
11 -12 1 0
12 9 -6 0
-12 -6 -9 0
11 -15 7 3 0
8 7 6 17 0
-20 13 -5 8 0
-8 17 -7 6 0
-20 -3 -21 14 0
2 -15 13 18 0
2 -13 -18 -15 0
14 20 -21 3 0
-4 10 -2 0
-11 -3 -15 7 0
-9 5 4 0
-15 11 -7 -3 0
-11 -1 -12 0
17 -8 7 -6 0
-14 16 -18 -17 0
21 -20 3 14 0
13 20 5 8 0
21 20 -14 3 0
-10 -4 2 0
-10 4 -2 0
-14 18 17 16 0
-16 18 -17 -14 0
8 5 -20 -13 0
18 17 14 -16 0
-18 13 2 15 0
15 18 -13 2 0
-13 15 -2 -18 0
20 -3 21 14 0
13 20 -8 -5 0
6 8 -17 -7 0
18 -13 -15 -2 0
-3 7 11 15 0
19 1 -21 0
17 -18 14 16 0
-5 -13 8 20 0
-6 -8 -7 -17 0
-17 7 6 -8 0
1 -11 12 0
21 -19 1 0
-1 21 19 0
-21 -20 3 -14 0
-21 -1 -19 0
-10 -16 -19 0
-15 13 -2 -18 0
-4 9 5 0
3 -7 -15 -11 0
-9 -5 -4 0
-5 4 9 0
-17 -18 14 -16 0
6 9 -12 0
11 12 -1 0
19 16 -10 0
-7 15 -3 -11 0
10 19 -16 0
8 -7 17 -6 0
-2 13 18 15 0
5 -20 -8 13 0
3 7 -11 15 0
10 4 2 0
17 -14 -18 -16 0
15 11 -7 3 0
16 18 -17 14 0
-6 7 -17 8 0
12 -9 6 0
20 -3 -21 -14 0
-8 -5 -13 -20 0
21 -20 -3 -14 0
-19 10 16 0
20 5 -13 -8 0
